single_objective/SL-DABL/OP/problems/op/OPLib-master/solutions/ea4op/gen1/gr431-gen1-50.sol
NAME : gr431
TYPE : OP
DIMENSION : 431
COST_LIMIT : 85707
ROUTE_NODES : 349
ROUTE_SCORE : 349
ROUTE_COST : 85564
NODE_SEQUENCE_SECTION
1
2
5
4
8
6
7
9
10
17
18
11
19
21
26
33
34
35
36
43
44
42
45
46
47
49
48
50
95
96
97
93
92
94
88
98
156
102
101
114
115
116
117
168
167
113
112
100
99
111
110
109
108
107
106
105
104
103
41
40
118
38
37
28
27
29
22
23
24
142
138
137
127
128
129
131
130
39
123
124
120
119
121
122
125
126
132
133
134
136
186
184
185
141
140
139
143
144
145
147
25
146
154
155
153
152
148
149
150
151
197
199
200
201
254
253
255
257
256
260
202
264
266
267
268
265
263
262
261
259
258
226
225
227
287
286
285
284
283
289
282
290
281
279
278
277
292
291
288
294
295
296
302
303
304
305
314
317
320
321
324
323
322
318
315
319
316
313
328
329
330
332
331
340
334
333
335
336
337
338
339
341
344
342
343
346
347
348
349
350
351
357
358
361
362
363
364
366
367
375
378
377
380
384
387
388
389
399
400
398
397
396
394
395
393
392
391
390
251
249
250
248
386
385
382
383
381
379
370
372
371
368
327
326
312
311
310
306
307
309
308
301
300
299
298
297
239
238
237
236
235
232
229
228
217
216
215
214
218
219
220
221
213
179
178
180
181
182
183
195
196
194
193
198
191
192
190
187
188
189
177
176
175
173
171
135
170
169
164
165
172
174
211
166
161
160
163
159
158
157
208
162
210
209
207
206
205
82
80
81
90
91
89
87
86
85
84
67
66
65
63
64
72
73
70
69
71
58
59
62
61
60
57
56
53
52
55
54
51
30
31
32
20
15
12
13
14
16
3
-1
DEPOT_SECTION
1
-1
EOF
